HUN,8,6,496
2,27,0,22,1,28,3,22,4,22,5,30
5,21,0,21,1,26,3,26,2,21,4,24
5,29,4,24,2,21,3,25,0,29,1,21
4,30,2,27,5,26,0,27,3,21,1,29
5,24,0,29,3,29,4,26,2,30,1,29
4,23,2,27,3,23,1,25,0,28,5,21
3,23,4,26,5,26,2,23,1,22,0,22
0,27,4,23,5,27,2,29,3,28,1,25
